Set parameter TSPort to value 51199
Set parameter TokenServer to value "open-license1.lanl.gov"
Set parameter TimeLimit to value 256
Set parameter Threads to value 1
Gurobi Optimizer version 10.0.3 build v10.0.3rc0 (linux64)

CPU model: Intel(R) Xeon(R) CPU E5-2695 v4 @ 2.10GHz, instruction set [SSE2|AVX|AVX2]
Thread count: 36 physical cores, 72 logical processors, using up to 1 threads

Optimize a model with 0 rows, 598 columns and 0 nonzeros
Model fingerprint: 0x4cad9756
Model has 2577 quadratic objective terms
Variable types: 0 continuous, 598 integer (598 binary)
Coefficient statistics:
  Matrix range     [0e+00, 0e+00]
  Objective range  [2e+00, 3e+01]
  QObjective range [8e+00, 8e+00]
  Bounds range     [1e+00, 1e+00]
  RHS range        [0e+00, 0e+00]
Found heuristic solution: objective 0.0000000
Found heuristic solution: objective -1006.000000
Found heuristic solution: objective -3518.000000
Found heuristic solution: objective -3528.000000
Presolve time: 0.22s
Presolved: 2577 rows, 3175 columns, 7731 nonzeros
Variable types: 0 continuous, 3175 integer (3175 binary)

Root relaxation: objective -4.815000e+03, 723 iterations, 0.01 seconds (0.01 work units)

    Nodes    |    Current Node    |     Objective Bounds      |     Work
 Expl Unexpl |  Obj  Depth IntInf | Incumbent    BestBd   Gap | It/Node Time

     0     0 -4815.0000    0  598 -3528.0000 -4815.0000  36.5%     -    0s
     0     0 -4384.5000    0  833 -3528.0000 -4384.5000  24.3%     -    0s
     0     0 -4381.5000    0  833 -3528.0000 -4381.5000  24.2%     -    0s
     0     0 -4292.3333    0  918 -3528.0000 -4292.3333  21.7%     -    0s
     0     0 -4292.3333    0  899 -3528.0000 -4292.3333  21.7%     -    1s
     0     2 -4292.0000    0  888 -3528.0000 -4292.0000  21.7%     -    1s
   513   498 -3711.1667   90  598 -3528.0000 -4280.5000  21.3%  79.9    5s
   530   510 -3946.0330   35 1723 -3528.0000 -3946.0330  11.8%  77.3   10s
   541   517 -3883.0753   51 2046 -3528.0000 -3883.0753  10.1%  75.8   15s
   550   523 -3768.6667   72 2484 -3528.0000 -3840.2244  8.85%  74.5   21s
   557   528 -3667.6667   95 2583 -3528.0000 -3816.8463  8.19%  73.6   27s
   565   533 -3730.1667   85 2644 -3528.0000 -3811.7885  8.04%  72.5   30s
   567   534 -3649.8333   99 2682 -3528.0000 -3796.7182  7.62%  72.3   35s
   574   539 -3748.1667   82 2711 -3528.0000 -3785.5296  7.30%  71.4   41s
   582   544 -3780.2312   35 2733 -3528.0000 -3780.2312  7.15%  70.4   45s
   595   553 -3772.8053   23 2748 -3528.0000 -3772.8053  6.94%  68.9   51s
   603   558 -3769.0460   39 2803 -3528.0000 -3769.0460  6.83%  68.0   55s
   613   565 -3711.1667   90 2777 -3528.0000 -3764.0288  6.69%  66.9   60s
   628   575 -3760.3152   72 2838 -3528.0000 -3760.3152  6.58%  65.3   65s
   645   586 -3755.6291   30 2832 -3528.0000 -3755.6291  6.45%  63.5   70s
   662   598 -3582.5000  123 2864 -3528.0000 -3752.3750  6.36%  61.9   75s
   680   610 -3749.2121   37 2862 -3528.0000 -3749.2121  6.27%  60.3   80s
   703   625 -3746.7166   39 2853 -3528.0000 -3746.7166  6.20%  58.3   85s
   715   635 -3746.6988   79 2570 -3528.0000 -3746.6988  6.20%   313   94s
   716   635 -3726.1667   86 2741 -3528.0000 -3746.6988  6.20%   313   99s
   717   636 -3663.6667  103 2804 -3528.0000 -3746.6988  6.20%   313  102s
   725   641 -3745.0028   36 2851 -3528.0000 -3745.0028  6.15%   309  105s
   736   649 -3742.5472   73 2851 -3528.0000 -3742.5472  6.08%   305  110s
   750   658 -3739.4151   72 2865 -3528.0000 -3739.4151  5.99%   299  115s
   763   667 -3711.6667   85 2895 -3528.0000 -3736.6140  5.91%   294  120s
   777   676 -3598.8333  119 2882 -3528.0000 -3733.7697  5.83%   288  125s
   791   685 -3663.6667  103 2906 -3528.0000 -3732.0773  5.78%   283  130s
   806   695 -3729.7968   51 2929 -3528.0000 -3729.7968  5.72%   278  135s
   825   708 -3727.7504   36 2919 -3528.0000 -3727.7504  5.66%   272  140s
   849   724 -3726.5787   45 2938 -3528.0000 -3726.5787  5.63%   264  145s
   873   740 -3617.0000  115 2955 -3528.0000 -3725.5328  5.60%   257  150s
   898   757 -3569.6667  128 2943 -3528.0000 -3724.7533  5.58%   250  155s
   921   772 -3724.1280    5 2929 -3528.0000 -3724.1280  5.56%   243  160s
   922   773 -3724.1280   25 2929 -3528.0000 -3724.1280  5.56%   243  167s
   924   776 -3722.6077   27 2888 -3528.0000 -3722.6077  5.52%   387  171s
   927   778 -3718.5138   29 2813 -3528.0000 -3720.6750  5.46%   394  175s
   932   781 -3713.3390   31 2740 -3528.0000 -3720.6750  5.46%   409  181s
   935   783 -3710.0781   33 2707 -3528.0000 -3720.6750  5.46%   419  185s
   939   786 -3706.8586   35 2668 -3528.0000 -3720.6750  5.46%   431  191s
   943   789 -3703.9520   37 2615 -3528.0000 -3720.6750  5.46%   441  195s
   948   792 -3700.3962   39 2574 -3528.0000 -3720.6750  5.46%   451  200s
   952   795 -3693.4155   41 2542 -3528.0000 -3720.6750  5.46%   462  205s
   956   797 -3691.0887   43 2502 -3528.0000 -3720.6750  5.46%   472  210s
   963   802 -3683.2205   47 2451 -3528.0000 -3720.6750  5.46%   482  215s
   971   807 -3676.5111   51 2398 -3528.0000 -3720.6750  5.46%   492  220s
   978   812 -3668.0483   54 2364 -3528.0000 -3720.6750  5.46%   504  225s
   985   817 -3655.0263   58 2304 -3528.0000 -3720.6750  5.46%   514  230s
   995   823 -3653.1608   63 2250 -3528.0000 -3720.6750  5.46%   523  235s
H 1002   783                    -3542.000000 -3720.6750  5.04%   530  243s
H 1003   744                    -3544.000000 -3720.6750  4.99%   530  244s
  1005   747 -3640.5564   68 2198 -3544.0000 -3720.6750  4.99%   535  245s
  1020   757 -3625.3587   75 2128 -3544.0000 -3720.6750  4.99%   542  250s
  1035   767 -3613.2812   83 2069 -3544.0000 -3720.6750  4.99%   550  255s

Cutting planes:
  Gomory: 25
  MIR: 101
  Flow cover: 1125
  Zero half: 378
  Mod-K: 2
  RLT: 106
  BQP: 168

Explored 1039 nodes (578250 simplex iterations) in 256.00 seconds (298.48 work units)
Thread count was 1 (of 72 available processors)

Solution count 6: -3544 -3542 -3528 ... 0

Time limit reached
Best objective -3.544000000000e+03, best bound -3.720000000000e+03, gap 4.9661%

User-callback calls 19009, time in user-callback 0.08 sec

BQP_SOLUTION, 598, 2577, -1306.000000, 256.000545, -1, -1, -1, 1, -1, -1, 1, -1, 1, 1, 1, -1, -1, 1, -1, 1, 1, -1, 1, 1, -1, -1, -1, 1, 1, 1, -1, -1, -1, 1, 1, -1, -1, -1, -1, -1, -1, -1, -1, 1, 1, -1, -1, -1, 1, 1, -1, -1, -1, 1, 1, -1, -1, -1, 1, 1, -1, -1, 1, -1, 1, -1, -1, 1, -1, -1, -1, -1, -1, 1, 1, -1, -1, 1, -1, -1, -1, -1, 1, -1, -1, -1, -1, 1, -1, 1, -1, -1, 1, -1, 1, -1, 1, 1, -1, -1, -1, -1, 1, -1, 1, 1, -1, -1, 1, 1, -1, -1, 1, -1, 1, -1, -1, 1, -1, 1, -1, -1, 1, -1, -1, -1, -1, 1, -1, -1, -1, -1, 1, -1, -1, -1, -1, 1, -1, 1, 1, 1, -1, 1, -1, -1, -1, 1, -1, 1, -1, -1, -1, -1, -1, -1, 1, 1, -1, -1, -1, 1, -1, -1, -1, -1, -1, -1, -1, -1, 1, -1, -1, 1, -1, 1, -1, -1, 1, -1, -1, 1, -1, 1, 1, 1, -1, -1, 1, -1, 1, 1, 1, -1, -1, 1, -1, 1, -1, 1, 1, -1, -1, -1, -1, 1, -1, 1, -1, -1, 1, -1, -1, 1, -1, 1, -1, -1, 1, 1, 1, -1, 1, 1, -1, -1, 1, -1, 1, 1, -1, 1, 1, 1, 1, -1, 1, -1, 1, 1, -1, 1, -1, 1, -1, 1, -1, -1, 1, -1, 1, -1, -1, 1, 1, 1, 1, -1, 1, 1, -1, 1, -1, -1, 1, -1, 1, -1, 1, 1, -1, 1, 1, 1, 1, -1, -1, -1, -1, 1, -1, 1, -1, -1, 1, -1, 1, -1, -1, 1, 1, -1, -1, 1, 1, 1, 1, -1, -1, 1, -1, 1, -1, -1, -1, 1, -1, -1, -1, 1, 1, -1, 1, -1, -1, 1, -1, 1, 1, -1, 1, -1, 1, -1, 1, -1, 1, -1, -1, -1, 1, -1, 1, 1, 1, -1, -1, 1, 1, 1, -1, 1, -1, 1, 1, 1, 1, 1, 1, 1, 1, 1, 1, 1, 1, -1, -1, 1, 1, -1, 1, -1, -1, 1, 1, -1, 1, 1, -1, 1, -1, -1, 1, 1, 1, -1, -1, 1, 1, 1, -1, -1, 1, 1, 1, 1, -1, 1, 1, 1, 1, -1, 1, 1, -1, 1, -1, 1, 1, -1, 1, -1, 1, 1, 1, 1, -1, 1, 1, 1, 1, -1, 1, 1, 1, -1, 1, -1, 1, 1, -1, 1, 1, 1, -1, 1, 1, 1, -1, 1, 1, 1, 1, 1, -1, 1, 1, 1, -1, -1, -1, 1, 1, 1, 1, -1, 1, 1, 1, -1, -1, 1, 1, 1, -1, -1, -1, 1, -1, 1, -1, 1, 1, 1, 1, -1, 1, 1, -1, 1, -1, -1, 1, -1, 1, -1, -1, 1, 1, 1, 1, 1, 1, -1, 1, -1, -1, -1, 1, -1, -1, 1, 1, -1, 1, -1, 1, -1, -1, 1, -1, -1, 1, -1, -1, 1, -1, 1, -1, -1, 1, 1, 1, -1, 1, 1, 1, 1, -1, 1, 1, -1, -1, -1, -1, 1, -1, 1, -1, 1, -1, 1, -1, 1, 1, -1, 1, -1, -1, 1, 1, 1, -1, 1, 1, -1, 1, 1, 1, 1, 1, 1, 1, 1, 1, -1, 1, 1, 1, 1, 1, 1, -1, 1, 1, -1, 1, -1, 1, -1, 1, 1, -1, 1, -1, 1, -1, 1, 1, 1, -1, 1, -1, 1, 1, 1, 1, 1, 1, -1, 1, 1, 1, 1, 1, -1, 1, 1, -1, 1, -1, 1
BQP_DATA, 598, 2577, -1306.000000, -1482.000000, -3544.000000, -3720.000000, 256.000545, 1631, 1039
